data/solutions/recovery/wellformed/moderate/flexible/wellformed_moderate_instance11/12.sol
Elapsed time: 1.59
Upper bound: 11159.0
Planning weighted value: 75122.0
C[0]=11159.0
C[1]=11158.0
C[2]=11155.0
y[0]=2
y[1]=0
y[2]=0
y[3]=2
y[4]=0
y[5]=2
y[6]=1
y[7]=1
y[8]=0
y[9]=1
y[10]=2
y[11]=0
y[12]=0
y[13]=1
y[14]=1
y[15]=0
y[16]=1
y[17]=2
y[18]=0
y[19]=2
y[20]=2
y[21]=2
y[22]=1
y[23]=1
y[24]=2
y[25]=1
y[26]=2
y[27]=0
y[28]=2
y[29]=2
y[30]=0
y[31]=2
y[32]=2
