data/solutions/recovery/wellformed/moderate/flexible/wellformed_moderate_instance11/12.log

Log started (V12.6.3.0) Fri Apr 20 20:57:05 2018

New value for default parallel thread count: 1

Problem '/tmp/tmpwYK0OF.pyomo.lp' read.
Read time = 0.00 sec. (0.03 ticks)

Problem name         : /tmp/tmpwYK0OF.pyomo.lp
Objective sense      : Minimize
Variables            :     104  [Nneg: 1,  Binary: 99,  General Integer: 4]
Objective nonzeros   :       1
Linear constraints   :      73  [Less: 36,  Equal: 37]
  Nonzeros           :    2185
  RHS nonzeros       :      67

Variables            : Min LB: 0.000000         Max UB: 1.000000       
Objective nonzeros   : Min   : 1.000000         Max   : 1.000000       
Linear constraints   :
  Nonzeros           : Min   : 1.000000         Max   : 1950.000       
  RHS nonzeros       : Min   : 1.000000         Max   : 4.000000       
Tried aggregator 2 times.
MIP Presolve eliminated 33 rows and 3 columns.
Aggregator did 4 substitutions.
Reduced MIP has 36 rows, 97 columns, and 253 nonzeros.
Reduced MIP has 96 binaries, 1 generals, 0 SOSs, and 0 indicators.
Presolve time = 0.00 sec. (0.76 ticks)
Found incumbent of value 33472.000000 after 0.00 sec. (0.94 ticks)
Probing time = 0.00 sec. (0.07 ticks)
Cover probing fixed 0 vars, tightened 1 bounds.
Tried aggregator 1 time.
Reduced MIP has 36 rows, 97 columns, and 253 nonzeros.
Reduced MIP has 96 binaries, 1 generals, 0 SOSs, and 0 indicators.
Presolve time = 0.00 sec. (0.17 ticks)
Probing time = 0.00 sec. (0.04 ticks)
Clique table members: 32.
MIP emphasis: balance optimality and feasibility.
MIP search method: dynamic search.
Parallel mode: none, using 1 thread.
Root relaxation solution time = 0.00 sec. (0.08 ticks)

        Nodes                                         Cuts/
   Node  Left     Objective  IInf  Best Integer    Best Bound    ItCnt     Gap

*     0+    0                        33472.0000     1950.0000            94.17%
      0     0    11157.3333     4    33472.0000    11157.3333        3   66.67%
*     0+    0                        11680.0000    11157.3333             4.47%
      0     0    11158.0000     6    11680.0000      Fract: 3       12    4.47%
*     0+    0                        11342.0000    11158.0000             1.62%
      0     0    11158.0000    10    11342.0000       Cuts: 6       24    1.62%
      0     0    11158.0000     6    11342.0000       Cuts: 4       27    1.62%
      0     0    11158.0000     8    11342.0000       Cuts: 6       35    1.62%
*     0+    0                        11230.0000    11158.0000             0.64%
*     0+    0                        11198.0000    11158.0000             0.36%
      0     2    11158.0000     8    11198.0000    11158.0000       35    0.36%
Elapsed time = 0.02 sec. (7.55 ticks, tree = 0.01 MB, solutions = 5)
*   160+   32                        11188.0000    11158.0000             0.27%
*   170+   36                        11161.0000    11158.0000             0.03%
*  3010+  220                        11160.0000    11158.0000             0.02%
   3730   290    11158.0000     4    11160.0000    11158.0000     9745    0.02%
   3731   289        cutoff          11160.0000    11158.0000     9747    0.02%
   3732   290    11158.0000     4    11160.0000    11158.0000     9748    0.02%
   3733   289        cutoff          11160.0000    11158.0000     9751    0.02%
   3734   290    11158.0000     4    11160.0000    11158.0000     9753    0.02%
   3735   291    11158.0000     4    11160.0000    11158.0000     9754    0.02%
   3736   292    11158.0000     4    11160.0000    11158.0000     9756    0.02%
   3737   293    11158.0000     6    11160.0000    11158.0000     9760    0.02%
   3738   294    11158.0000     4    11160.0000    11158.0000     9763    0.02%
*  8169   587      integral     0    11159.0000    11158.0000    18126    0.01%

Root node processing (before b&c):
  Real time             =    0.02 sec. (7.55 ticks)
Sequential b&c:
  Real time             =    1.56 sec. (726.39 ticks)
                          ------------
Total (root+branch&cut) =    1.58 sec. (733.93 ticks)

Solution pool: 9 solutions saved.

MIP - Integer optimal, tolerance (0.0001/1e-06):  Objective =  1.1159000000e+04
Current MIP best bound =  1.1158000000e+04 (gap = 1, 0.01%)
Solution time =    1.58 sec.  Iterations = 18126  Nodes = 8170 (587)
Deterministic time = 733.93 ticks  (465.25 ticks/sec)


Incumbent solution written to file '/tmp/tmpFmGMOV.cplex.sol'.
